INCAR created by Atomic Simulation Environment
 ENCUT = 500
 GGA = PE
 IBRION = 2
 IBRION = 1
 NSW = 100
 LVTOT = .TRUE.
 LVHAR = .TRUE.
