Na                                      
   1.0000000000000000     
     4.1925700901014658    0.0000000000000000    0.0000000000000000
     0.0000000000000000    4.1925700901014658    0.0000000000000000
    -0.0000000000000000    0.0000000000000000    4.1925700901014658
   Na
     2
Direct
  0.0000000000000000  0.0000000000000000  0.0000000000000000
  0.4999999999065849  0.4999999999065849  0.4999999999065849

  0.00000000E+00  0.00000000E+00  0.00000000E+00
  0.00000000E+00  0.00000000E+00  0.00000000E+00
