INCAR created by Atomic Simulation Environment
 ENCUT = 500
 ISIF = 3
 IBRION =
 NSW = 100
 LVTOT = .TRUE.
 LVHAR = .TRUE.
