Na
1.0
        4.2820000648         0.0000000000         0.0000000000
        0.0000000000         4.2820000648         0.0000000000
        0.0000000000         0.0000000000         4.2820000648
   Na
    2
Cartesian
     0.000000000         0.000000000         0.000000000
     2.141000032         2.141000032         2.141000032
